c File: flat50_3_0.col
c
c SOURCE: Joseph Culberson (joe@cs.ualberta.ca)
c DESCRIPTION: Quasi-random coloring problem
c              generated with flatness = 0
c                             probability = 0.139
c                             known coloring = 3
c                             random seed = 1235
c              Creation Date:  Tue Jun  9 12:04:24 1998
c Maximum degree = 7 Minimum degree = 1
c p edge 50 115
c cnf created by edge2cnf
p cnf 150 545
-1 -2 0
-1 -3 0
-2 -3 0
1 2 3 0
-4 -5 0
-4 -6 0
-5 -6 0
4 5 6 0
-7 -8 0
-7 -9 0
-8 -9 0
7 8 9 0
-10 -11 0
-10 -12 0
-11 -12 0
10 11 12 0
-13 -14 0
-13 -15 0
-14 -15 0
13 14 15 0
-16 -17 0
-16 -18 0
-17 -18 0
16 17 18 0
-19 -20 0
-19 -21 0
-20 -21 0
19 20 21 0
-22 -23 0
-22 -24 0
-23 -24 0
22 23 24 0
-25 -26 0
-25 -27 0
-26 -27 0
25 26 27 0
-28 -29 0
-28 -30 0
-29 -30 0
28 29 30 0
-31 -32 0
-31 -33 0
-32 -33 0
31 32 33 0
-34 -35 0
-34 -36 0
-35 -36 0
34 35 36 0
-37 -38 0
-37 -39 0
-38 -39 0
37 38 39 0
-40 -41 0
-40 -42 0
-41 -42 0
40 41 42 0
-43 -44 0
-43 -45 0
-44 -45 0
43 44 45 0
-46 -47 0
-46 -48 0
-47 -48 0
46 47 48 0
-49 -50 0
-49 -51 0
-50 -51 0
49 50 51 0
-52 -53 0
-52 -54 0
-53 -54 0
52 53 54 0
-55 -56 0
-55 -57 0
-56 -57 0
55 56 57 0
-58 -59 0
-58 -60 0
-59 -60 0
58 59 60 0
-61 -62 0
-61 -63 0
-62 -63 0
61 62 63 0
-64 -65 0
-64 -66 0
-65 -66 0
64 65 66 0
-67 -68 0
-67 -69 0
-68 -69 0
67 68 69 0
-70 -71 0
-70 -72 0
-71 -72 0
70 71 72 0
-73 -74 0
-73 -75 0
-74 -75 0
73 74 75 0
-76 -77 0
-76 -78 0
-77 -78 0
76 77 78 0
-79 -80 0
-79 -81 0
-80 -81 0
79 80 81 0
-82 -83 0
-82 -84 0
-83 -84 0
82 83 84 0
-85 -86 0
-85 -87 0
-86 -87 0
85 86 87 0
-88 -89 0
-88 -90 0
-89 -90 0
88 89 90 0
-91 -92 0
-91 -93 0
-92 -93 0
91 92 93 0
-94 -95 0
-94 -96 0
-95 -96 0
94 95 96 0
-97 -98 0
-97 -99 0
-98 -99 0
97 98 99 0
-100 -101 0
-100 -102 0
-101 -102 0
100 101 102 0
-103 -104 0
-103 -105 0
-104 -105 0
103 104 105 0
-106 -107 0
-106 -108 0
-107 -108 0
106 107 108 0
-109 -110 0
-109 -111 0
-110 -111 0
109 110 111 0
-112 -113 0
-112 -114 0
-113 -114 0
112 113 114 0
-115 -116 0
-115 -117 0
-116 -117 0
115 116 117 0
-118 -119 0
-118 -120 0
-119 -120 0
118 119 120 0
-121 -122 0
-121 -123 0
-122 -123 0
121 122 123 0
-124 -125 0
-124 -126 0
-125 -126 0
124 125 126 0
-127 -128 0
-127 -129 0
-128 -129 0
127 128 129 0
-130 -131 0
-130 -132 0
-131 -132 0
130 131 132 0
-133 -134 0
-133 -135 0
-134 -135 0
133 134 135 0
-136 -137 0
-136 -138 0
-137 -138 0
136 137 138 0
-139 -140 0
-139 -141 0
-140 -141 0
139 140 141 0
-142 -143 0
-142 -144 0
-143 -144 0
142 143 144 0
-145 -146 0
-145 -147 0
-146 -147 0
145 146 147 0
-148 -149 0
-148 -150 0
-149 -150 0
148 149 150 0
-58 -1 0
-59 -2 0
-60 -3 0
-61 -1 0
-62 -2 0
-63 -3 0
-73 -1 0
-74 -2 0
-75 -3 0
-76 -1 0
-77 -2 0
-78 -3 0
-139 -1 0
-140 -2 0
-141 -3 0
-52 -4 0
-53 -5 0
-54 -6 0
-61 -4 0
-62 -5 0
-63 -6 0
-79 -4 0
-80 -5 0
-81 -6 0
-100 -4 0
-101 -5 0
-102 -6 0
-112 -4 0
-113 -5 0
-114 -6 0
-127 -4 0
-128 -5 0
-129 -6 0
-148 -4 0
-149 -5 0
-150 -6 0
-52 -7 0
-53 -8 0
-54 -9 0
-55 -7 0
-56 -8 0
-57 -9 0
-94 -7 0
-95 -8 0
-96 -9 0
-100 -7 0
-101 -8 0
-102 -9 0
-55 -10 0
-56 -11 0
-57 -12 0
-67 -10 0
-68 -11 0
-69 -12 0
-70 -10 0
-71 -11 0
-72 -12 0
-148 -10 0
-149 -11 0
-150 -12 0
-61 -13 0
-62 -14 0
-63 -15 0
-73 -13 0
-74 -14 0
-75 -15 0
-94 -13 0
-95 -14 0
-96 -15 0
-103 -13 0
-104 -14 0
-105 -15 0
-112 -13 0
-113 -14 0
-114 -15 0
-133 -13 0
-134 -14 0
-135 -15 0
-97 -16 0
-98 -17 0
-99 -18 0
-112 -16 0
-113 -17 0
-114 -18 0
-133 -16 0
-134 -17 0
-135 -18 0
-139 -16 0
-140 -17 0
-141 -18 0
-142 -16 0
-143 -17 0
-144 -18 0
-97 -19 0
-98 -20 0
-99 -21 0
-109 -19 0
-110 -20 0
-111 -21 0
-148 -19 0
-149 -20 0
-150 -21 0
-70 -22 0
-71 -23 0
-72 -24 0
-76 -22 0
-77 -23 0
-78 -24 0
-109 -22 0
-110 -23 0
-111 -24 0
-124 -22 0
-125 -23 0
-126 -24 0
-127 -22 0
-128 -23 0
-129 -24 0
-136 -22 0
-137 -23 0
-138 -24 0
-55 -25 0
-56 -26 0
-57 -27 0
-64 -25 0
-65 -26 0
-66 -27 0
-88 -25 0
-89 -26 0
-90 -27 0
-109 -25 0
-110 -26 0
-111 -27 0
-52 -28 0
-53 -29 0
-54 -30 0
-58 -28 0
-59 -29 0
-60 -30 0
-67 -28 0
-68 -29 0
-69 -30 0
-88 -28 0
-89 -29 0
-90 -30 0
-148 -28 0
-149 -29 0
-150 -30 0
-55 -31 0
-56 -32 0
-57 -33 0
-106 -31 0
-107 -32 0
-108 -33 0
-142 -31 0
-143 -32 0
-144 -33 0
-67 -34 0
-68 -35 0
-69 -36 0
-76 -34 0
-77 -35 0
-78 -36 0
-127 -34 0
-128 -35 0
-129 -36 0
-58 -37 0
-59 -38 0
-60 -39 0
-97 -37 0
-98 -38 0
-99 -39 0
-106 -37 0
-107 -38 0
-108 -39 0
-115 -37 0
-116 -38 0
-117 -39 0
-130 -37 0
-131 -38 0
-132 -39 0
-73 -40 0
-74 -41 0
-75 -42 0
-100 -40 0
-101 -41 0
-102 -42 0
-124 -40 0
-125 -41 0
-126 -42 0
-133 -40 0
-134 -41 0
-135 -42 0
-103 -43 0
-104 -44 0
-105 -45 0
-106 -43 0
-107 -44 0
-108 -45 0
-115 -43 0
-116 -44 0
-117 -45 0
-145 -43 0
-146 -44 0
-147 -45 0
-58 -46 0
-59 -47 0
-60 -48 0
-61 -46 0
-62 -47 0
-63 -48 0
-106 -46 0
-107 -47 0
-108 -48 0
-124 -46 0
-125 -47 0
-126 -48 0
-139 -46 0
-140 -47 0
-141 -48 0
-76 -49 0
-77 -50 0
-78 -51 0
-88 -49 0
-89 -50 0
-90 -51 0
-109 -49 0
-110 -50 0
-111 -51 0
-124 -49 0
-125 -50 0
-126 -51 0
-127 -52 0
-128 -53 0
-129 -54 0
-133 -55 0
-134 -56 0
-135 -57 0
-106 -58 0
-107 -59 0
-108 -60 0
-115 -64 0
-116 -65 0
-117 -66 0
-121 -64 0
-122 -65 0
-123 -66 0
-133 -64 0
-134 -65 0
-135 -66 0
-142 -64 0
-143 -65 0
-144 -66 0
-130 -67 0
-131 -68 0
-132 -69 0
-136 -67 0
-137 -68 0
-138 -69 0
-148 -70 0
-149 -71 0
-150 -72 0
-112 -76 0
-113 -77 0
-114 -78 0
-133 -76 0
-134 -77 0
-135 -78 0
-145 -76 0
-146 -77 0
-147 -78 0
-103 -79 0
-104 -80 0
-105 -81 0
-109 -79 0
-110 -80 0
-111 -81 0
-118 -79 0
-119 -80 0
-120 -81 0
-139 -79 0
-140 -80 0
-141 -81 0
-124 -82 0
-125 -83 0
-126 -84 0
-127 -82 0
-128 -83 0
-129 -84 0
-133 -82 0
-134 -83 0
-135 -84 0
-148 -82 0
-149 -83 0
-150 -84 0
-103 -85 0
-104 -86 0
-105 -87 0
-124 -85 0
-125 -86 0
-126 -87 0
-136 -85 0
-137 -86 0
-138 -87 0
-139 -85 0
-140 -86 0
-141 -87 0
-112 -88 0
-113 -89 0
-114 -90 0
-118 -88 0
-119 -89 0
-120 -90 0
-145 -88 0
-146 -89 0
-147 -90 0
-148 -88 0
-149 -89 0
-150 -90 0
-106 -91 0
-107 -92 0
-108 -93 0
-130 -94 0
-131 -95 0
-132 -96 0
-139 -94 0
-140 -95 0
-141 -96 0
-112 -97 0
-113 -98 0
-114 -99 0
-121 -97 0
-122 -98 0
-123 -99 0
-112 -100 0
-113 -101 0
-114 -102 0
-118 -100 0
-119 -101 0
-120 -102 0
-121 -100 0
-122 -101 0
-123 -102 0
-136 -100 0
-137 -101 0
-138 -102 0
